0000000000000000
0000000000000000
0000000000000000
0000000000000000
0000000000000000
0000111111000000
0001111111100000
0000000000110000
0000100000110000
0001100000110000
0001100000110000
0001100000110000
0001100000110000
0001000000100000
0000000000000000
0000000000000000
